/* Objective function */
min: +5000 C1 +5000 C2 +5000 C3 +5000 C4 +5000 C5 +5000 C6 +5000 C7 +5000 C8 +5000 C9 +5000 C10 +5000 C11
 +5000 C12 +5000 C13 +5000 C14 +5000 C15 +5000 C16 +5000 C17 +5000 C18 +5000 C19 +5000 C20 +5000 C21
 +5000 C22 +5000 C23 +5000 C24 +5000 C25 +5000 C26 +5000 C27 +5000 C28 +5000 C29 +5000 C30 +5000 C31
 +5000 C32 +5000 C33 +5000 C34 +5000 C35 +5000 C36 +5000 C37 +5000 C38 +5000 C39 +5000 C40 +5000 C41
 +5000 C42 +5000 C43 +5000 C44 +5000 C45 +5000 C46 +5000 C47 +5000 C48 +5000 C49 +5000 C50 +5000 C51
 +5000 C52 +5000 C53 +5000 C54 +5000 C55 +5000 C56 +5000 C57 +5000 C58 +5000 C59 +5000 C60 +5000 C61
 +5000 C62 +5000 C63 +5000 C64 +5000 C65 +5000 C66 +5000 C67 +5000 C68 +5000 C69 +5000 C70 +5000 C71
 +5000 C72 +5000 C73 +5000 C74 +5000 C75 +5000 C76 +5000 C77 +5000 C78 +5000 C79 +5000 C80 +5000 C81
 +5000 C82 +5000 C83 +5000 C84 +5000 C85 +5000 C86 +5000 C87 +5000 C88 +5000 C89 +5000 C90 +5000 C91
 +5000 C92 +5000 C93 +5000 C94 +5000 C95 +5000 C96 +5000 C97 +5000 C98 +5000 C99 +5000 C100 +5000 C101
 +5000 C102 +5000 C103 +5000 C104 +5000 C105 +5000 C106 +5000 C107 +5000 C108 +5000 C109 +5000 C110 +5000 C111
 +5000 C112 +5000 C113 +5000 C114 +5000 C115 +5000 C116 +5000 C117 +5000 C118 +5000 C119 +5000 C120 +5000 C121
 +5000 C122 +5000 C123 +5000 C124 +5000 C125 +5000 C126 +5000 C127 +5000 C128 +5000 C129 +5000 C130 +5000 C131
 +5000 C132 +5000 C133 +5000 C134 +5000 C135 +5000 C136 +5000 C137 +5000 C138 +5000 C139 +5000 C140 +5000 C141
 +5000 C142 +5000 C143 +5000 C144 +5000 C145 +5000 C146 +5000 C147 +5000 C148 +5000 C149 +5000 C150 +5000 C151
 +5000 C152 +5000 C153 +5000 C154 +5000 C155 +5000 C156 +5000 C157 +5000 C158 +5000 C159 +5000 C160 +5000 C161
 +5000 C162 +5000 C163 +5000 C164 +5000 C165 +5000 C166 +5000 C167 +5000 C168 +5000 C169 +5000 C170 +5000 C171
 +5000 C172 +5000 C173 +5000 C174 +5000 C175 +5000 C176 +5000 C177 +5000 C178 +5000 C179 +5000 C180 +5000 C181
 +5000 C182 +5000 C183 +5000 C184 +5000 C185 +5000 C186 +5000 C187 +5000 C188 +5000 C189 +5000 C190 +5000 C191
 +5000 C192 +5000 C193 +5000 C194 +5000 C195 +5000 C196 +5000 C197 +5000 C198 +5000 C199 +5000 C200 +5000 C201
 +5000 C202 +5000 C203 +5000 C204 +5000 C205 +5000 C206 +5000 C207 +5000 C208 +5000 C209 +5000 C210 +5000 C211
 +5000 C212 +5000 C213 +5000 C214 +5000 C215 +5000 C216 +5000 C217 +5000 C218 +5000 C219 +5000 C220 +5000 C221
 +5000 C222 +5000 C223 +5000 C224 +5000 C225 +5000 C226 +5000 C227 +5000 C228 +5000 C229 +5000 C230 +5000 C231
 +5000 C232 +5000 C233 +5000 C234 +5000 C235 +5000 C236 +5000 C237 +5000 C238 +5000 C239 +5000 C240 +5000 C241
 +5000 C242 +5000 C243 +5000 C244 +5000 C245 +5000 C246 +5000 C247 +5000 C248 +5000 C249 +5000 C250 +5000 C251
 +5000 C252 +5000 C253 +5000 C254 +5000 C255 +5000 C256 +5000 C257 +5000 C258 +5000 C259 +5000 C260 +5000 C261
 +5000 C262 +5000 C263 +5000 C264 +5000 C265 +5000 C266 +5000 C267 +5000 C268 +5000 C269 +5000 C270 +5000 C271
 +5000 C272 +5000 C273 +5000 C274 +5000 C275 +5000 C276 +5000 C277 +5000 C278 +5000 C279 +5000 C280 +5000 C281
 +5000 C282 +5000 C283 +5000 C284 +5000 C285 +5000 C286 +5000 C287 +5000 C288 +5000 C289 +5000 C290 +5000 C291
 +5000 C292 +5000 C293 +5000 C294 +5000 C295 +5000 C296 +5000 C297 +5000 C298 +5000 C299 +5000 C300 +5000 C301
 +5000 C302 +5000 C303 +5000 C304 +5000 C305 +5000 C306 +5000 C307 +5000 C308 +5000 C309 +5000 C310 +5000 C311
 +5000 C312 +5000 C313 +5000 C314 +5000 C315 +5000 C316 +5000 C317 +5000 C318 +5000 C319 +5000 C320 +5000 C321
 +5000 C322 +5000 C323 +5000 C324 +5000 C325 +5000 C326 +5000 C327 +5000 C328 +5000 C329 +5000 C330 +5000 C331
 +5000 C332 +5000 C333 +5000 C334 +5000 C335 +5000 C336 +5000 C337 +5000 C338 +5000 C339 +5000 C340 +5000 C341
 +5000 C342 +5000 C343 +5000 C344 +5000 C345 +5000 C346 +5000 C347 +5000 C348 +5000 C349 +5000 C350 +5000 C351
 +5000 C352 +5000 C353 +5000 C354 +5000 C355 +5000 C356 +5000 C357 +5000 C358 +5000 C359 +5000 C360 +5000 C361
 +5000 C362 +5000 C363 +5000 C364 +5000 C365 +5000 C366 +5000 C367 +5000 C368 +5000 C369 +5000 C370 +5000 C371
 +5000 C372 +5000 C373 +5000 C374 +5000 C375 +5000 C376 +5000 C377 +5000 C378 +5000 C379 +5000 C380 +5000 C381
 +5000 C382 +5000 C383 +5000 C384 +5000 C385 +5000 C386 +5000 C387 +5000 C388 +5000 C389 +5000 C390 +5000 C391
 +5000 C392 +5000 C393 +5000 C394 +5000 C395 +5000 C396 +5000 C397 +5000 C398 +5000 C399 +5000 C400 +5000 C401
 +5000 C402 +5000 C403 +5000 C404 +5000 C405 +5000 C406 +5000 C407 +5000 C408 +5000 C409 +5000 C410 +5000 C411
 +5000 C412 +5000 C413 +5000 C414 +5000 C415 +5000 C416 +5000 C417 +5000 C418 +5000 C419 +5000 C420 +5000 C421
 +5000 C422 +5000 C423 +5000 C424 +5000 C425 +5000 C426 +5000 C427 +5000 C428 +5000 C429 +5000 C430 +5000 C431
 +5000 C432 +5000 C433 +5000 C434 +5000 C435 +5000 C436 +5000 C437 +5000 C438 +5000 C439 +5000 C440 +5000 C441
 +5000 C442 +5000 C443 +5000 C444 +5000 C445 +5000 C446 +5000 C447 +5000 C448 +5000 C449 +5000 C450 +5000 C451
 +5000 C452 +5000 C453 +5000 C454 +5000 C455 +5000 C456 +5000 C457 +5000 C458 +5000 C459 +5000 C460 +5000 C461
 +5000 C462 +5000 C463 +5000 C464 +5000 C465 +5000 C466 +5000 C467 +5000 C468 +5000 C469 +5000 C470 +5000 C471
 +5000 C472 +5000 C473 +5000 C474 +5000 C475 +5000 C476 +5000 C477 +5000 C478 +5000 C479 +5000 C480 +5000 C481
 +5000 C482 +5000 C483 +5000 C484 +5000 C485 +5000 C486 +5000 C487 +5000 C488 +5000 C489 +5000 C490 +5000 C491
 +5000 C492 +5000 C493 +5000 C494 +5000 C495 +5000 C496 +5000 C497 +5000 C498 +5000 C499 +5000 C500 +5000 C501
 +5000 C502 +5000 C503 +5000 C504 +5000 C505 +5000 C506 +5000 C507 +5000 C508 +5000 C509 +5000 C510 +5000 C511
 +5000 C512 +5000 C513 +5000 C514 +5000 C515 +5000 C516 +5000 C517 +5000 C518 +5000 C519 +5000 C520 +5000 C521
 +5000 C522 +5000 C523 +5000 C524 +5000 C525 +5000 C526 +5000 C527 +5000 C528 +5000 C529 +5000 C530 +5000 C531
 +5000 C532 +5000 C533 +5000 C534 +5000 C535 +5000 C536 +5000 C537 +5000 C538 +5000 C539 +5000 C540 +5000 C541
 +5000 C542 +5000 C543 +5000 C544 +5000 C545 +5000 C546 +5000 C547 +5000 C548 +5000 C549 +5000 C550 +5000 C551
 +5000 C552 +5000 C553 +5000 C554 +5000 C555 +5000 C556 +5000 C557 +5000 C558 +5000 C559 +5000 C560 +5000 C561
 +5000 C562 +5000 C563 +5000 C564 +5000 C565 +5000 C566 +5000 C567 +5000 C568 +5000 C569 +5000 C570 +5000 C571
 +5000 C572 +5000 C573 +5000 C574 +5000 C575 +5000 C576 +5000 C577 +5000 C578 +5000 C579 +5000 C580 +5000 C581
 +5000 C582 +5000 C583 +5000 C584 +5000 C585 +5000 C586 +5000 C587 +5000 C588 +5000 C589 +5000 C590 +5000 C591
 +5000 C592 +5000 C593 +5000 C594 +5000 C595 +5000 C596 +5000 C597 +5000 C598 +5000 C599 +5000 C600 +5000 C601
 +5000 C602 +5000 C603 +5000 C604 +5000 C605 +5000 C606 +5000 C607 +5000 C608 +5000 C609 +5000 C610 +5000 C611
 +5000 C612 +5000 C613 +5000 C614 +5000 C615 +5000 C616 +5000 C617 +5000 C618 +5000 C619 +5000 C620 +5000 C621
 +5000 C622 +5000 C623 +5000 C624 +5000 C625 +5000 C626 +5000 C627 +5000 C628 +5000 C629 +5000 C630 +5000 C631
 +5000 C632 +5000 C633 +5000 C634 +5000 C635 +5000 C636 +5000 C637 +5000 C638 +5000 C639 +5000 C640 +5000 C641
 +5000 C642 +5000 C643 +5000 C644 +5000 C645 +5000 C646 +5000 C647 +5000 C648 +5000 C649 +5000 C650 +5000 C651
 +5000 C652 +5000 C653 +5000 C654 +5000 C655 +5000 C656 +5000 C657 +5000 C658 +5000 C659 +5000 C660 +5000 C661
 +5000 C662 +5000 C663 +5000 C664 +5000 C665 +5000 C666 +5000 C667 +5000 C668 +5000 C669 +5000 C670 +5000 C671
 +5000 C672 +5000 C673 +5000 C674 +5000 C675 +5000 C676 +5000 C677 +5000 C678 +5000 C679 +5000 C680 +5000 C681
 +5000 C682 +5000 C683 +5000 C684 +5000 C685 +5000 C686 +5000 C687 +5000 C688 +5000 C689 +5000 C690 +5000 C691
 +5000 C692 +5000 C693 +5000 C694 +5000 C695 +5000 C696 +5000 C697 +5000 C698 +5000 C699 +5000 C700 +5000 C701
 +5000 C702 +5000 C703 +5000 C704 +5000 C705 +5000 C706 +5000 C707 +5000 C708 +5000 C709 +5000 C710 +5000 C711
 +5000 C712 +5000 C713 +5000 C714 +5000 C715 +5000 C716 +5000 C717 +5000 C718 +5000 C719 +5000 C720 +5000 C721
 +5000 C722 +5000 C723 +5000 C724 +5000 C725 +5000 C726 +5000 C727 +5000 C728 +5000 C729 +5000 C730 +5000 C731
 +5000 C732 +5000 C733 +5000 C734 +5000 C735 +5000 C736 +5000 C737 +5000 C738 +5000 C739 +5000 C740 +5000 C741
 +5000 C742 +5000 C743 +5000 C744 +5000 C745 +5000 C746 +5000 C747 +5000 C748 +5000 C749 +5000 C750 +5000 C751
 +5000 C752 +5000 C753 +5000 C754 +5000 C755 +5000 C756 +5000 C757 +5000 C758 +5000 C759 +5000 C760 +5000 C761
 +5000 C762 +5000 C763 +5000 C764 +5000 C765 +5000 C766 +5000 C767 +5000 C768 +5000 C769 +5000 C770 +5000 C771
 +5000 C772 +5000 C773 +5000 C774 +5000 C775 +5000 C776 +5000 C777 +5000 C778 +5000 C779 +5000 C780 +5000 C781
 +5000 C782 +5000 C783 +5000 C784 +5000 C785 +5000 C786 +5000 C787 +5000 C788 +5000 C789 +5000 C790 +5000 C791
 +5000 C792 +5000 C793 +5000 C794 +5000 C795 +5000 C796 +5000 C797 +5000 C798 +5000 C799 +5000 C800 +5000 C801
 +5000 C802 +5000 C803 +5000 C804 +5000 C805 +5000 C806 +5000 C807 +5000 C808 +5000 C809 +5000 C810 +5000 C811
 +5000 C812 +5000 C813 +5000 C814 +5000 C815 +5000 C816 +5000 C817 +5000 C818 +5000 C819 +5000 C820 +5000 C821
 +5000 C822 +5000 C823 +5000 C824 +5000 C825 +5000 C826 +5000 C827 +5000 C828 +5000 C829 +5000 C830 +5000 C831
 +5000 C832 +5000 C833 +5000 C834 +5000 C835 +5000 C836 +5000 C837 +5000 C838 +5000 C839 +5000 C840 +5000 C841
 +5000 C842 +5000 C843 +5000 C844 +5000 C845 +5000 C846 +5000 C847 +5000 C848 +5000 C849 +5000 C850 +5000 C851
 +5000 C852 +5000 C853 +5000 C854 +5000 C855 +5000 C856 +5000 C857 +5000 C858 +5000 C859 +5000 C860 +5000 C861
 +5000 C862 +5000 C863 +5000 C864 +5000 C865 +5000 C866 +5000 C867 +5000 C868 +5000 C869 +5000 C870 +5000 C871
 +5000 C872 +5000 C873 +5000 C874 +5000 C875 +5000 C876 +5000 C877 +5000 C878 +5000 C879 +5000 C880 +5000 C881
 +5000 C882 +5000 C883 +5000 C884 +5000 C885 +5000 C886 +5000 C887 +5000 C888 +5000 C889 +5000 C890 +5000 C891
 +5000 C892 +5000 C893 +5000 C894 +5000 C895 +5000 C896 +5000 C897 +5000 C898 +5000 C899 +5000 C900 +C901
 +C902 +C903 +C904 +C905 +C906 +C907 +C908 +C909 +C910 +C911 +C912 +C913 +C914 +C915 +46000 C916 +54000 C917
 +30000 C918 +30000 C919 +30000 C920 +30000 C921 +54000 C922 +30000 C923 +30000 C924 +30000 C925 +62000 C926
 +30000 C927 +34000 C928 +58000 C929 +42000 C930;

/* Constraints */
R1: +100 C901 >= 21.25;
R2: +100 C902 >= 21.25;
R3: +100 C903 >= 18.75;
R4: +100 C904 >= 1.25;
R5: +100 C905 >= 16.25;
R6: +100 C906 >= 40;
R7: +100 C907 >= 8.75;
R8: +100 C908 >= 18.75;
R9: +100 C909 >= 142.5;
R10: +100 C910 >= 13.75;
R11: +100 C911 >= 57.5;
R12: +100 C912 >= 1.25;
R13: +100 C913 >= 13.75;
R14: +100 C914 >= 8.75;
R15: +100 C915 >= 116.25;
+C1 +C2 -C901 = 0;
+C1 +C12 +C17 -C901 = 0;
-C2 +C12 +C14 -C23 = 0;
+C17 +C19 +C20 -C24 -C29 = 0;
-C14 -C19 +C23 +C24 +C25 -C30 = 0;
-C20 -C25 +C29 +C30 = 0;
+C31 +C32 -C902 = 0;
-C31 +C37 +C38 -C47 = 0;
+C32 +C37 +C53 -C902 = 0;
-C38 +C47 +C49 +C50 -C54 -C59 = 0;
-C49 +C53 +C54 +C55 -C60 = 0;
-C50 -C55 +C59 +C60 = 0;
+C61 +C62 -C903 = 0;
-C61 +C67 +C68 -C72 = 0;
-C62 -C67 +C72 +C74 -C83 = 0;
+C68 +C84 +C89 -C903 = 0;
-C74 +C83 +C84 +C85 -C90 = 0;
-C85 +C89 +C90 = 0;
+C91 +C92 -C904 = 0;
-C91 +C97 +C98 -C102 -C107 = 0;
-C92 -C97 +C102 +C104 = 0;
-C98 +C107 +C109 +C110 -C119 = 0;
+C104 +C109 +C120 -C904 = 0;
-C110 +C119 +C120 = 0;
+C121 +C122 -C905 = 0;
-C121 +C127 +C128 -C132 -C137 = 0;
-C122 -C127 +C132 +C134 -C143 = 0;
-C128 +C137 +C139 +C140 -C144 = 0;
-C134 -C139 +C143 +C144 +C145 = 0;
+C140 +C145 -C905 = 0;
+C152 -C156 = 0;
+C156 +C157 +C158 -C906 = 0;
+C152 +C157 +C173 -C906 = 0;
-C158 +C169 +C170 -C174 -C179 = 0;
-C169 +C173 +C174 +C175 -C180 = 0;
-C170 -C175 +C179 +C180 = 0;
+C182 -C186 -C191 = 0;
+C186 +C187 +C188 -C907 = 0;
-C182 -C187 +C191 +C194 -C203 = 0;
+C188 +C204 +C209 -C907 = 0;
-C194 +C203 +C204 +C205 -C210 = 0;
-C205 +C209 +C210 = 0;
+C212 -C216 -C221 = 0;
+C216 +C217 +C218 -C908 = 0;
-C212 -C217 +C221 +C224 = 0;
-C218 +C229 +C230 -C239 = 0;
+C224 +C229 +C240 -C908 = 0;
-C230 +C239 +C240 = 0;
+C242 -C246 -C251 = 0;
+C246 +C247 +C248 -C909 = 0;
-C242 -C247 +C251 +C254 -C263 = 0;
-C248 +C259 +C260 -C264 = 0;
-C254 -C259 +C263 +C264 +C265 = 0;
+C260 +C265 -C909 = 0;
+C271 -C276 -C281 = 0;
-C271 +C276 +C278 -C282 = 0;
+C281 +C282 +C284 -C910 = 0;
+C278 +C294 +C299 -C910 = 0;
-C284 +C294 +C295 -C300 = 0;
-C295 +C299 +C300 = 0;
+C301 -C306 -C311 = 0;
-C301 +C306 +C308 -C312 -C317 = 0;
+C311 +C312 +C314 -C911 = 0;
-C308 +C317 +C319 +C320 -C329 = 0;
+C314 +C319 +C330 -C911 = 0;
-C320 +C329 +C330 = 0;
+C331 -C336 -C341 = 0;
-C331 +C336 +C338 -C342 -C347 = 0;
+C341 +C342 +C344 -C912 = 0;
-C338 +C347 +C349 +C350 -C354 = 0;
-C344 -C349 +C354 +C355 = 0;
+C350 +C355 -C912 = 0;
+C361 +C362 -C366 -C371 = 0;
-C361 +C366 +C367 -C372 -C377 = 0;
-C362 -C367 +C371 +C372 +C374 = 0;
+C377 +C379 +C380 -C913 = 0;
+C374 +C379 +C390 -C913 = 0;
-C380 +C390 = 0;
+C391 +C392 -C396 -C401 = 0;
-C391 +C396 +C397 -C402 -C407 = 0;
-C392 -C397 +C401 +C402 +C404 -C413 = 0;
+C407 +C409 +C410 -C914 = 0;
-C404 -C409 +C413 +C415 = 0;
+C410 +C415 -C914 = 0;
+C421 +C422 -C426 -C431 = 0;
-C421 +C426 +C427 +C428 -C432 -C437 = 0;
-C422 -C427 +C431 +C432 -C443 = 0;
-C428 +C437 +C440 -C444 = 0;
+C443 +C444 +C445 -C915 = 0;
+C440 +C445 -C915 = 0;
+C451 +C452 -C901 = 0;
+C451 +C462 +C467 -C901 = 0;
-C452 +C462 +C464 -C473 = 0;
+C467 +C469 +C470 -C474 -C479 = 0;
-C464 -C469 +C473 +C474 +C475 -C480 = 0;
-C470 -C475 +C479 +C480 = 0;
+C481 +C482 -C902 = 0;
-C481 +C487 +C488 -C497 = 0;
+C482 +C487 +C503 -C902 = 0;
-C488 +C497 +C499 +C500 -C504 -C509 = 0;
-C499 +C503 +C504 +C505 -C510 = 0;
-C500 -C505 +C509 +C510 = 0;
+C511 +C512 -C903 = 0;
-C511 +C517 +C518 -C522 = 0;
-C512 -C517 +C522 +C524 -C533 = 0;
+C518 +C534 +C539 -C903 = 0;
-C524 +C533 +C534 +C535 -C540 = 0;
-C535 +C539 +C540 = 0;
+C541 +C542 -C904 = 0;
-C541 +C547 +C548 -C552 -C557 = 0;
-C542 -C547 +C552 +C554 = 0;
-C548 +C557 +C559 +C560 -C569 = 0;
+C554 +C559 +C570 -C904 = 0;
-C560 +C569 +C570 = 0;
+C571 +C572 -C905 = 0;
-C571 +C577 +C578 -C582 -C587 = 0;
-C572 -C577 +C582 +C584 -C593 = 0;
-C578 +C587 +C589 +C590 -C594 = 0;
-C584 -C589 +C593 +C594 +C595 = 0;
+C590 +C595 -C905 = 0;
+C602 -C606 = 0;
+C606 +C607 +C608 -C906 = 0;
+C602 +C607 +C623 -C906 = 0;
-C608 +C619 +C620 -C624 -C629 = 0;
-C619 +C623 +C624 +C625 -C630 = 0;
-C620 -C625 +C629 +C630 = 0;
+C632 -C636 -C641 = 0;
+C636 +C637 +C638 -C907 = 0;
-C632 -C637 +C641 +C644 -C653 = 0;
+C638 +C654 +C659 -C907 = 0;
-C644 +C653 +C654 +C655 -C660 = 0;
-C655 +C659 +C660 = 0;
+C662 -C666 -C671 = 0;
+C666 +C667 +C668 -C908 = 0;
-C662 -C667 +C671 +C674 = 0;
-C668 +C679 +C680 -C689 = 0;
+C674 +C679 +C690 -C908 = 0;
-C680 +C689 +C690 = 0;
+C692 -C696 -C701 = 0;
+C696 +C697 +C698 -C909 = 0;
-C692 -C697 +C701 +C704 -C713 = 0;
-C698 +C709 +C710 -C714 = 0;
-C704 -C709 +C713 +C714 +C715 = 0;
+C710 +C715 -C909 = 0;
+C721 -C726 -C731 = 0;
-C721 +C726 +C728 -C732 = 0;
+C731 +C732 +C734 -C910 = 0;
+C728 +C744 +C749 -C910 = 0;
-C734 +C744 +C745 -C750 = 0;
-C745 +C749 +C750 = 0;
+C751 -C756 -C761 = 0;
-C751 +C756 +C758 -C762 -C767 = 0;
+C761 +C762 +C764 -C911 = 0;
-C758 +C767 +C769 +C770 -C779 = 0;
+C764 +C769 +C780 -C911 = 0;
-C770 +C779 +C780 = 0;
+C781 -C786 -C791 = 0;
-C781 +C786 +C788 -C792 -C797 = 0;
+C791 +C792 +C794 -C912 = 0;
-C788 +C797 +C799 +C800 -C804 = 0;
-C794 -C799 +C804 +C805 = 0;
+C800 +C805 -C912 = 0;
+C811 +C812 -C816 -C821 = 0;
-C811 +C816 +C817 -C822 -C827 = 0;
-C812 -C817 +C821 +C822 +C824 = 0;
+C827 +C829 +C830 -C913 = 0;
+C824 +C829 +C840 -C913 = 0;
-C830 +C840 = 0;
+C841 +C842 -C846 -C851 = 0;
-C841 +C846 +C847 -C852 -C857 = 0;
-C842 -C847 +C851 +C852 +C854 -C863 = 0;
+C857 +C859 +C860 -C914 = 0;
-C854 -C859 +C863 +C865 = 0;
+C860 +C865 -C914 = 0;
+C871 +C872 -C876 -C881 = 0;
-C871 +C876 +C877 +C878 -C882 -C887 = 0;
-C872 -C877 +C881 +C882 -C893 = 0;
-C878 +C887 +C890 -C894 = 0;
+C893 +C894 +C895 -C915 = 0;
+C890 +C895 -C915 = 0;
+C1 +C451 -C901 <= 0;
+C2 +C452 -C901 <= 0;
+C3 +C453 -C901 <= 0;
+C4 +C454 -C901 <= 0;
+C5 +C455 -C901 <= 0;
+C7 +C457 -C901 <= 0;
+C8 +C458 -C901 <= 0;
+C9 +C459 -C901 <= 0;
+C10 +C460 -C901 <= 0;
+C13 +C463 -C901 <= 0;
+C14 +C464 -C901 <= 0;
+C15 +C465 -C901 <= 0;
+C19 +C469 -C901 <= 0;
+C20 +C470 -C901 <= 0;
+C25 +C475 -C901 <= 0;
+C31 +C481 -C902 <= 0;
+C32 +C482 -C902 <= 0;
+C33 +C483 -C902 <= 0;
+C34 +C484 -C902 <= 0;
+C35 +C485 -C902 <= 0;
+C37 +C487 -C902 <= 0;
+C38 +C488 -C902 <= 0;
+C39 +C489 -C902 <= 0;
+C40 +C490 -C902 <= 0;
+C43 +C493 -C902 <= 0;
+C44 +C494 -C902 <= 0;
+C45 +C495 -C902 <= 0;
+C49 +C499 -C902 <= 0;
+C50 +C500 -C902 <= 0;
+C55 +C505 -C902 <= 0;
+C61 +C511 -C903 <= 0;
+C62 +C512 -C903 <= 0;
+C63 +C513 -C903 <= 0;
+C64 +C514 -C903 <= 0;
+C65 +C515 -C903 <= 0;
+C67 +C517 -C903 <= 0;
+C68 +C518 -C903 <= 0;
+C69 +C519 -C903 <= 0;
+C70 +C520 -C903 <= 0;
+C73 +C523 -C903 <= 0;
+C74 +C524 -C903 <= 0;
+C75 +C525 -C903 <= 0;
+C79 +C529 -C903 <= 0;
+C80 +C530 -C903 <= 0;
+C85 +C535 -C903 <= 0;
+C91 +C541 -C904 <= 0;
+C92 +C542 -C904 <= 0;
+C93 +C543 -C904 <= 0;
+C94 +C544 -C904 <= 0;
+C95 +C545 -C904 <= 0;
+C97 +C547 -C904 <= 0;
+C98 +C548 -C904 <= 0;
+C99 +C549 -C904 <= 0;
+C100 +C550 -C904 <= 0;
+C103 +C553 -C904 <= 0;
+C104 +C554 -C904 <= 0;
+C105 +C555 -C904 <= 0;
+C109 +C559 -C904 <= 0;
+C110 +C560 -C904 <= 0;
+C115 +C565 -C904 <= 0;
+C121 +C571 -C905 <= 0;
+C122 +C572 -C905 <= 0;
+C123 +C573 -C905 <= 0;
+C124 +C574 -C905 <= 0;
+C125 +C575 -C905 <= 0;
+C127 +C577 -C905 <= 0;
+C128 +C578 -C905 <= 0;
+C129 +C579 -C905 <= 0;
+C130 +C580 -C905 <= 0;
+C133 +C583 -C905 <= 0;
+C134 +C584 -C905 <= 0;
+C135 +C585 -C905 <= 0;
+C139 +C589 -C905 <= 0;
+C140 +C590 -C905 <= 0;
+C145 +C595 -C905 <= 0;
+C151 +C601 -C906 <= 0;
+C152 +C602 -C906 <= 0;
+C153 +C603 -C906 <= 0;
+C154 +C604 -C906 <= 0;
+C155 +C605 -C906 <= 0;
+C157 +C607 -C906 <= 0;
+C158 +C608 -C906 <= 0;
+C159 +C609 -C906 <= 0;
+C160 +C610 -C906 <= 0;
+C163 +C613 -C906 <= 0;
+C164 +C614 -C906 <= 0;
+C165 +C615 -C906 <= 0;
+C169 +C619 -C906 <= 0;
+C170 +C620 -C906 <= 0;
+C175 +C625 -C906 <= 0;
+C181 +C631 -C907 <= 0;
+C182 +C632 -C907 <= 0;
+C183 +C633 -C907 <= 0;
+C184 +C634 -C907 <= 0;
+C185 +C635 -C907 <= 0;
+C187 +C637 -C907 <= 0;
+C188 +C638 -C907 <= 0;
+C189 +C639 -C907 <= 0;
+C190 +C640 -C907 <= 0;
+C193 +C643 -C907 <= 0;
+C194 +C644 -C907 <= 0;
+C195 +C645 -C907 <= 0;
+C199 +C649 -C907 <= 0;
+C200 +C650 -C907 <= 0;
+C205 +C655 -C907 <= 0;
+C211 +C661 -C908 <= 0;
+C212 +C662 -C908 <= 0;
+C213 +C663 -C908 <= 0;
+C214 +C664 -C908 <= 0;
+C215 +C665 -C908 <= 0;
+C217 +C667 -C908 <= 0;
+C218 +C668 -C908 <= 0;
+C219 +C669 -C908 <= 0;
+C220 +C670 -C908 <= 0;
+C223 +C673 -C908 <= 0;
+C224 +C674 -C908 <= 0;
+C225 +C675 -C908 <= 0;
+C229 +C679 -C908 <= 0;
+C230 +C680 -C908 <= 0;
+C235 +C685 -C908 <= 0;
+C241 +C691 -C909 <= 0;
+C242 +C692 -C909 <= 0;
+C243 +C693 -C909 <= 0;
+C244 +C694 -C909 <= 0;
+C245 +C695 -C909 <= 0;
+C247 +C697 -C909 <= 0;
+C248 +C698 -C909 <= 0;
+C249 +C699 -C909 <= 0;
+C250 +C700 -C909 <= 0;
+C253 +C703 -C909 <= 0;
+C254 +C704 -C909 <= 0;
+C255 +C705 -C909 <= 0;
+C259 +C709 -C909 <= 0;
+C260 +C710 -C909 <= 0;
+C265 +C715 -C909 <= 0;
+C271 +C721 -C910 <= 0;
+C272 +C722 -C910 <= 0;
+C273 +C723 -C910 <= 0;
+C274 +C724 -C910 <= 0;
+C275 +C725 -C910 <= 0;
+C277 +C727 -C910 <= 0;
+C278 +C728 -C910 <= 0;
+C279 +C729 -C910 <= 0;
+C280 +C730 -C910 <= 0;
+C283 +C733 -C910 <= 0;
+C284 +C734 -C910 <= 0;
+C285 +C735 -C910 <= 0;
+C289 +C739 -C910 <= 0;
+C290 +C740 -C910 <= 0;
+C295 +C745 -C910 <= 0;
+C301 +C751 -C911 <= 0;
+C302 +C752 -C911 <= 0;
+C303 +C753 -C911 <= 0;
+C304 +C754 -C911 <= 0;
+C305 +C755 -C911 <= 0;
+C307 +C757 -C911 <= 0;
+C308 +C758 -C911 <= 0;
+C309 +C759 -C911 <= 0;
+C310 +C760 -C911 <= 0;
+C313 +C763 -C911 <= 0;
+C314 +C764 -C911 <= 0;
+C315 +C765 -C911 <= 0;
+C319 +C769 -C911 <= 0;
+C320 +C770 -C911 <= 0;
+C325 +C775 -C911 <= 0;
+C331 +C781 -C912 <= 0;
+C332 +C782 -C912 <= 0;
+C333 +C783 -C912 <= 0;
+C334 +C784 -C912 <= 0;
+C335 +C785 -C912 <= 0;
+C337 +C787 -C912 <= 0;
+C338 +C788 -C912 <= 0;
+C339 +C789 -C912 <= 0;
+C340 +C790 -C912 <= 0;
+C343 +C793 -C912 <= 0;
+C344 +C794 -C912 <= 0;
+C345 +C795 -C912 <= 0;
+C349 +C799 -C912 <= 0;
+C350 +C800 -C912 <= 0;
+C355 +C805 -C912 <= 0;
+C361 +C811 -C913 <= 0;
+C362 +C812 -C913 <= 0;
+C363 +C813 -C913 <= 0;
+C364 +C814 -C913 <= 0;
+C365 +C815 -C913 <= 0;
+C367 +C817 -C913 <= 0;
+C368 +C818 -C913 <= 0;
+C369 +C819 -C913 <= 0;
+C370 +C820 -C913 <= 0;
+C373 +C823 -C913 <= 0;
+C374 +C824 -C913 <= 0;
+C375 +C825 -C913 <= 0;
+C379 +C829 -C913 <= 0;
+C380 +C830 -C913 <= 0;
+C385 +C835 -C913 <= 0;
+C391 +C841 -C914 <= 0;
+C392 +C842 -C914 <= 0;
+C393 +C843 -C914 <= 0;
+C394 +C844 -C914 <= 0;
+C395 +C845 -C914 <= 0;
+C397 +C847 -C914 <= 0;
+C398 +C848 -C914 <= 0;
+C399 +C849 -C914 <= 0;
+C400 +C850 -C914 <= 0;
+C403 +C853 -C914 <= 0;
+C404 +C854 -C914 <= 0;
+C405 +C855 -C914 <= 0;
+C409 +C859 -C914 <= 0;
+C410 +C860 -C914 <= 0;
+C415 +C865 -C914 <= 0;
+C421 +C871 -C915 <= 0;
+C422 +C872 -C915 <= 0;
+C423 +C873 -C915 <= 0;
+C424 +C874 -C915 <= 0;
+C425 +C875 -C915 <= 0;
+C427 +C877 -C915 <= 0;
+C428 +C878 -C915 <= 0;
+C429 +C879 -C915 <= 0;
+C430 +C880 -C915 <= 0;
+C433 +C883 -C915 <= 0;
+C434 +C884 -C915 <= 0;
+C435 +C885 -C915 <= 0;
+C439 +C889 -C915 <= 0;
+C440 +C890 -C915 <= 0;
+C445 +C895 -C915 <= 0;
+C1 +C6 +C31 +C36 +C61 +C66 +C91 +C96 +C121 +C126 +C151 +C156 +C181 +C186 +C211 +C216 +C241 +C246 +C271
 +C276 +C301 +C306 +C331 +C336 +C361 +C366 +C391 +C396 +C421 +C426 +C451 +C456 +C481 +C486 +C511 +C516
 +C541 +C546 +C571 +C576 +C601 +C606 +C631 +C636 +C661 +C666 +C691 +C696 +C721 +C726 +C751 +C756 +C781
 +C786 +C811 +C816 +C841 +C846 +C871 +C876 +C916 <= 100;
+C2 +C11 +C32 +C41 +C62 +C71 +C92 +C101 +C122 +C131 +C152 +C161 +C182 +C191 +C212 +C221 +C242 +C251 +C272
 +C281 +C302 +C311 +C332 +C341 +C362 +C371 +C392 +C401 +C422 +C431 +C452 +C461 +C482 +C491 +C512 +C521
 +C542 +C551 +C572 +C581 +C602 +C611 +C632 +C641 +C662 +C671 +C692 +C701 +C722 +C731 +C752 +C761 +C782
 +C791 +C812 +C821 +C842 +C851 +C872 +C881 +C917 <= 100;
+C3 +C16 +C33 +C46 +C63 +C76 +C93 +C106 +C123 +C136 +C153 +C166 +C183 +C196 +C213 +C226 +C243 +C256 +C273
 +C286 +C303 +C316 +C333 +C346 +C363 +C376 +C393 +C406 +C423 +C436 +C453 +C466 +C483 +C496 +C513 +C526
 +C543 +C556 +C573 +C586 +C603 +C616 +C633 +C646 +C663 +C676 +C693 +C706 +C723 +C736 +C753 +C766 +C783
 +C796 +C813 +C826 +C843 +C856 +C873 +C886 +C918 <= 0;
+C4 +C21 +C34 +C51 +C64 +C81 +C94 +C111 +C124 +C141 +C154 +C171 +C184 +C201 +C214 +C231 +C244 +C261 +C274
 +C291 +C304 +C321 +C334 +C351 +C364 +C381 +C394 +C411 +C424 +C441 +C454 +C471 +C484 +C501 +C514 +C531
 +C544 +C561 +C574 +C591 +C604 +C621 +C634 +C651 +C664 +C681 +C694 +C711 +C724 +C741 +C754 +C771 +C784
 +C801 +C814 +C831 +C844 +C861 +C874 +C891 +C919 <= 0;
+C5 +C26 +C35 +C56 +C65 +C86 +C95 +C116 +C125 +C146 +C155 +C176 +C185 +C206 +C215 +C236 +C245 +C266 +C275
 +C296 +C305 +C326 +C335 +C356 +C365 +C386 +C395 +C416 +C425 +C446 +C455 +C476 +C485 +C506 +C515 +C536
 +C545 +C566 +C575 +C596 +C605 +C626 +C635 +C656 +C665 +C686 +C695 +C716 +C725 +C746 +C755 +C776 +C785
 +C806 +C815 +C836 +C845 +C866 +C875 +C896 +C920 <= 0;
+C7 +C12 +C37 +C42 +C67 +C72 +C97 +C102 +C127 +C132 +C157 +C162 +C187 +C192 +C217 +C222 +C247 +C252 +C277
 +C282 +C307 +C312 +C337 +C342 +C367 +C372 +C397 +C402 +C427 +C432 +C457 +C462 +C487 +C492 +C517 +C522
 +C547 +C552 +C577 +C582 +C607 +C612 +C637 +C642 +C667 +C672 +C697 +C702 +C727 +C732 +C757 +C762 +C787
 +C792 +C817 +C822 +C847 +C852 +C877 +C882 +C921 <= 100;
+C8 +C17 +C38 +C47 +C68 +C77 +C98 +C107 +C128 +C137 +C158 +C167 +C188 +C197 +C218 +C227 +C248 +C257 +C278
 +C287 +C308 +C317 +C338 +C347 +C368 +C377 +C398 +C407 +C428 +C437 +C458 +C467 +C488 +C497 +C518 +C527
 +C548 +C557 +C578 +C587 +C608 +C617 +C638 +C647 +C668 +C677 +C698 +C707 +C728 +C737 +C758 +C767 +C788
 +C797 +C818 +C827 +C848 +C857 +C878 +C887 +C922 <= 100;
+C9 +C22 +C39 +C52 +C69 +C82 +C99 +C112 +C129 +C142 +C159 +C172 +C189 +C202 +C219 +C232 +C249 +C262 +C279
 +C292 +C309 +C322 +C339 +C352 +C369 +C382 +C399 +C412 +C429 +C442 +C459 +C472 +C489 +C502 +C519 +C532
 +C549 +C562 +C579 +C592 +C609 +C622 +C639 +C652 +C669 +C682 +C699 +C712 +C729 +C742 +C759 +C772 +C789
 +C802 +C819 +C832 +C849 +C862 +C879 +C892 +C923 <= 0;
+C10 +C27 +C40 +C57 +C70 +C87 +C100 +C117 +C130 +C147 +C160 +C177 +C190 +C207 +C220 +C237 +C250 +C267
 +C280 +C297 +C310 +C327 +C340 +C357 +C370 +C387 +C400 +C417 +C430 +C447 +C460 +C477 +C490 +C507 +C520
 +C537 +C550 +C567 +C580 +C597 +C610 +C627 +C640 +C657 +C670 +C687 +C700 +C717 +C730 +C747 +C760 +C777
 +C790 +C807 +C820 +C837 +C850 +C867 +C880 +C897 +C924 <= 0;
+C13 +C18 +C43 +C48 +C73 +C78 +C103 +C108 +C133 +C138 +C163 +C168 +C193 +C198 +C223 +C228 +C253 +C258
 +C283 +C288 +C313 +C318 +C343 +C348 +C373 +C378 +C403 +C408 +C433 +C438 +C463 +C468 +C493 +C498 +C523
 +C528 +C553 +C558 +C583 +C588 +C613 +C618 +C643 +C648 +C673 +C678 +C703 +C708 +C733 +C738 +C763 +C768
 +C793 +C798 +C823 +C828 +C853 +C858 +C883 +C888 +C925 <= 0;
+C14 +C23 +C44 +C53 +C74 +C83 +C104 +C113 +C134 +C143 +C164 +C173 +C194 +C203 +C224 +C233 +C254 +C263
 +C284 +C293 +C314 +C323 +C344 +C353 +C374 +C383 +C404 +C413 +C434 +C443 +C464 +C473 +C494 +C503 +C524
 +C533 +C554 +C563 +C584 +C593 +C614 +C623 +C644 +C653 +C674 +C683 +C704 +C713 +C734 +C743 +C764 +C773
 +C794 +C803 +C824 +C833 +C854 +C863 +C884 +C893 +C926 <= 100;
+C15 +C28 +C45 +C58 +C75 +C88 +C105 +C118 +C135 +C148 +C165 +C178 +C195 +C208 +C225 +C238 +C255 +C268
 +C285 +C298 +C315 +C328 +C345 +C358 +C375 +C388 +C405 +C418 +C435 +C448 +C465 +C478 +C495 +C508 +C525
 +C538 +C555 +C568 +C585 +C598 +C615 +C628 +C645 +C658 +C675 +C688 +C705 +C718 +C735 +C748 +C765 +C778
 +C795 +C808 +C825 +C838 +C855 +C868 +C885 +C898 +C927 <= 0;
+C19 +C24 +C49 +C54 +C79 +C84 +C109 +C114 +C139 +C144 +C169 +C174 +C199 +C204 +C229 +C234 +C259 +C264
 +C289 +C294 +C319 +C324 +C349 +C354 +C379 +C384 +C409 +C414 +C439 +C444 +C469 +C474 +C499 +C504 +C529
 +C534 +C559 +C564 +C589 +C594 +C619 +C624 +C649 +C654 +C679 +C684 +C709 +C714 +C739 +C744 +C769 +C774
 +C799 +C804 +C829 +C834 +C859 +C864 +C889 +C894 +C928 <= 100;
+C20 +C29 +C50 +C59 +C80 +C89 +C110 +C119 +C140 +C149 +C170 +C179 +C200 +C209 +C230 +C239 +C260 +C269
 +C290 +C299 +C320 +C329 +C350 +C359 +C380 +C389 +C410 +C419 +C440 +C449 +C470 +C479 +C500 +C509 +C530
 +C539 +C560 +C569 +C590 +C599 +C620 +C629 +C650 +C659 +C680 +C689 +C710 +C719 +C740 +C749 +C770 +C779
 +C800 +C809 +C830 +C839 +C860 +C869 +C890 +C899 +C929 <= 100;
+C25 +C30 +C55 +C60 +C85 +C90 +C115 +C120 +C145 +C150 +C175 +C180 +C205 +C210 +C235 +C240 +C265 +C270
 +C295 +C300 +C325 +C330 +C355 +C360 +C385 +C390 +C415 +C420 +C445 +C450 +C475 +C480 +C505 +C510 +C535
 +C540 +C565 +C570 +C595 +C600 +C625 +C630 +C655 +C660 +C685 +C690 +C715 +C720 +C745 +C750 +C775 +C780
 +C805 +C810 +C835 +C840 +C865 +C870 +C895 +C900 +C930 <= 100;

/* Variable bounds */
C916 <= 1;
C917 <= 1;
C918 <= 1;
C919 <= 1;
C920 <= 1;
C921 <= 1;
C922 <= 1;
C923 <= 1;
C924 <= 1;
C925 <= 1;
C926 <= 1;
C927 <= 1;
C928 <= 1;
C929 <= 1;
C930 <= 1;

/* Integer definitions */
int C1,C2,C3,C4,C5,C6,C7,C8,C9,C10,C11,C12,C13,C14,C15,C16,C17,C18,C19,C20,C21,C22,C23,C24,C25,C26,C27,C28,C29,C30,C31,C32,C33,C34,C35,C36,C37,C38,C39,C40,C41,C42,C43,C44,C45,C46,C47,C48,C49,C50,C51,C52,C53,C54,C55,C56,C57,C58,C59,C60,C61,C62,C63,C64,C65,C66,C67,C68,C69,C70,C71,C72,C73,C74,C75,C76,C77,C78,C79,C80,C81,C82,C83,C84,C85,C86,C87,C88,C89,C90,C91,C92,C93,C94,C95,C96,C97,C98,C99,C100,C101,C102,C103,C104,C105,C106,C107,C108,C109,C110,C111,C112,C113,C114,C115,C116,C117,C118,C119,C120,C121,C122,C123,C124,C125,C126,C127,C128,C129,C130,C131,C132,C133,C134,C135,C136,C137,C138,C139,C140,C141,C142,C143,C144,C145,C146,C147,C148,C149,C150,C151,C152,C153,C154,C155,C156,C157,C158,C159,C160,C161,C162,C163,C164,C165,C166,C167,C168,C169,C170,C171,C172,C173,C174,C175,C176,C177,C178,C179,C180,C181,C182,C183,C184,C185,C186,C187,C188,C189,C190,C191,C192,C193,C194,C195,C196,C197,C198,C199,C200,C201,C202,C203,C204,C205,C206,C207,C208,C209,C210,C211,C212,C213,C214,C215,C216,C217,C218,C219,C220,C221,C222,C223,C224,C225,C226,C227,C228,C229,C230,C231,C232,C233,C234,C235,C236,C237,C238,C239,C240,C241,C242,C243,C244,C245,C246,C247,C248,C249,C250,C251,C252,C253,C254,C255,C256,C257,C258,C259,C260,C261,C262,C263,C264,C265,C266,C267,C268,C269,C270,C271,C272,C273,C274,C275,C276,C277,C278,C279,C280,C281,C282,C283,C284,C285,C286,C287,C288,C289,C290,C291,C292,C293,C294,C295,C296,C297,C298,C299,C300,C301,C302,C303,C304,C305,C306,C307,C308,C309,C310,C311,C312,C313,C314,C315,C316,C317,C318,C319,C320,C321,C322,C323,C324,C325,C326,C327,C328,C329,C330,C331,C332,C333,C334,C335,C336,C337,C338,C339,C340,C341,C342,C343,C344,C345,C346,C347,C348,C349,C350,C351,C352,C353,C354,C355,C356,C357,C358,C359,C360,C361,C362,C363,C364,C365,C366,C367,C368,C369,C370,C371,C372,C373,C374,C375,C376,C377,C378,C379,C380,C381,C382,C383,C384,C385,C386,C387,C388,C389,C390,C391,C392,C393,C394,C395,C396,C397,C398,C399,C400,C401,C402,C403,C404,C405,C406,C407,C408,C409,C410,C411,C412,C413,C414,C415,C416,C417,C418,C419,C420,C421,C422,C423,C424,C425,C426,C427,C428,C429,C430,C431,C432,C433,C434,C435,C436,C437,C438,C439,C440,C441,C442,C443,C444,C445,C446,C447,C448,C449,C450,C451,C452,C453,C454,C455,C456,C457,C458,C459,C460,C461,C462,C463,C464,C465,C466,C467,C468,C469,C470,C471,C472,C473,C474,C475,C476,C477,C478,C479,C480,C481,C482,C483,C484,C485,C486,C487,C488,C489,C490,C491,C492,C493,C494,C495,C496,C497,C498,C499,C500,C501,C502,C503,C504,C505,C506,C507,C508,C509,C510,C511,C512,C513,C514,C515,C516,C517,C518,C519,C520,C521,C522,C523,C524,C525,C526,C527,C528,C529,C530,C531,C532,C533,C534,C535,C536,C537,C538,C539,C540,C541,C542,C543,C544,C545,C546,C547,C548,C549,C550,C551,C552,C553,C554,C555,C556,C557,C558,C559,C560,C561,C562,C563,C564,C565,C566,C567,C568,C569,C570,C571,C572,C573,C574,C575,C576,C577,C578,C579,C580,C581,C582,C583,C584,C585,C586,C587,C588,C589,C590,C591,C592,C593,C594,C595,C596,C597,C598,C599,C600,C601,C602,C603,C604,C605,C606,C607,C608,C609,C610,C611,C612,C613,C614,C615,C616,C617,C618,C619,C620,C621,C622,C623,C624,C625,C626,C627,C628,C629,C630,C631,C632,C633,C634,C635,C636,C637,C638,C639,C640,C641,C642,C643,C644,C645,C646,C647,C648,C649,C650,C651,C652,C653,C654,C655,C656,C657,C658,C659,C660,C661,C662,C663,C664,C665,C666,C667,C668,C669,C670,C671,C672,C673,C674,C675,C676,C677,C678,C679,C680,C681,C682,C683,C684,C685,C686,C687,C688,C689,C690,C691,C692,C693,C694,C695,C696,C697,C698,C699,C700,C701,C702,C703,C704,C705,C706,C707,C708,C709,C710,C711,C712,C713,C714,C715,C716,C717,C718,C719,C720,C721,C722,C723,C724,C725,C726,C727,C728,C729,C730,C731,C732,C733,C734,C735,C736,C737,C738,C739,C740,C741,C742,C743,C744,C745,C746,C747,C748,C749,C750,C751,C752,C753,C754,C755,C756,C757,C758,C759,C760,C761,C762,C763,C764,C765,C766,C767,C768,C769,C770,C771,C772,C773,C774,C775,C776,C777,C778,C779,C780,C781,C782,C783,C784,C785,C786,C787,C788,C789,C790,C791,C792,C793,C794,C795,C796,C797,C798,C799,C800,C801,C802,C803,C804,C805,C806,C807,C808,C809,C810,C811,C812,C813,C814,C815,C816,C817,C818,C819,C820,C821,C822,C823,C824,C825,C826,C827,C828,C829,C830,C831,C832,C833,C834,C835,C836,C837,C838,C839,C840,C841,C842,C843,C844,C845,C846,C847,C848,C849,C850,C851,C852,C853,C854,C855,C856,C857,C858,C859,C860,C861,C862,C863,C864,C865,C866,C867,C868,C869,C870,C871,C872,C873,C874,C875,C876,C877,C878,C879,C880,C881,C882,C883,C884,C885,C886,C887,C888,C889,C890,C891,C892,C893,C894,C895,C896,C897,C898,C899,C900,C901,C902,C903,C904,C905,C906,C907,C908,C909,C910,C911,C912,C913,C914,C915,C916,C917,C918,C919,C920,C921,C922,C923,C924,C925,C926,C927,C928,C929,C930;
